numDepartments=2;
departmentName=array1d(0..numDepartments,["Dep1", "Dep2", "Dep3"]);
numStations=8;
stationName=array1d(0..numStations,["St1", "St2", "St3", "St4", "St5", "St6", "St7", "St8", "St9"]);
stationDepartment=array1d(0..numStations,[0, 1, 1, 1, 1, 2, 2, 2, 2]);
stationCommon=array1d(0..numStations,[true,true,false,false,false,true,false,false,false]);

numShifts=2;
shiftName=array1d(0..numShifts,["Sh1", "Sh2", "Sh3"]);
indexNight={};
shiftLength=array1d(0..numShifts,[0,7,24]);
forbiddenSequences=array1d(0..numShifts,[{},{},{1,2,3,4}]);
preferenceWeight=5;
riskWeight=10;
rbWeight=0;
persWeight=50;
stationWeight=500;

numSkills=4;
skillName=array1d(0..numSkills,["Sk1", "Sk2", "Sk3", "Sk4", "Sk5"]);

numSubsum=3;
subDepartment=[1, 2, 2];
subSkills=[{1, 2, 4}, {1}, {3}];
numDays = 3;
demand=array4d(0..numStations,0..numShifts,1..numDays,0..numSkills, [0, 0, 0, 0, 0, 0, 0, 0, 0, 0, 0, 0, 0, 0, 0, 0, 0, 0, 0, 0, 0, 0, 0, 0, 0, 0, 0, 0, 0, 0, 0, 0, 0, 0, 0, 0, 0, 0, 0, 0, 0, 0, 0, 0, 0, 0, 0, 0, 0, 0, 0, 0, 0, 0, 0, 0, 0, 0, 0, 0, 0, 0, 0, 0, 0, 0, 0, 0, 0, 0, 0, 2, 0, 2, 0, 0, 0, 0, 0, 0, 0, 0, 0, 0, 0, 0, 0, 0, 0, 2, 0, 0, 0, 0, 0, 0, 0, 0, 0, 0, 0, 0, 0, 0, 0, 0, 2, 2, 2, 0, 0, 2, 2, 2, 0, 0, 0, 0, 0, 0, 0, 0, 0, 0, 0, 0, 0, 0, 0, 0, 0, 0, 0, 0, 0, 0, 0, 0, 0, 0, 0, 0, 0, 0, 0, 0, 0, 0, 0, 0, 0, 2, 2, 2, 0, 0, 2, 2, 2, 0, 0, 0, 0, 0, 0, 0, 0, 0, 0, 0, 0, 0, 0, 0, 0, 0, 0, 0, 0, 0, 0, 0, 0, 0, 0, 0, 0, 0, 0, 0, 0, 0, 0, 0, 0, 0, 2, 0, 4, 0, 0, 2, 0, 4, 0, 0, 0, 0, 0, 0, 0, 0, 0, 0, 0, 0, 0, 0, 0, 0, 0, 0, 0, 0, 0, 0, 0, 0, 0, 0, 0, 0, 0, 0, 0, 0, 0, 0, 0, 0, 0, 0, 0, 0, 0, 0, 0, 0, 0, 0, 0, 2, 0, 2, 0, 0, 0, 0, 0, 0, 0, 0, 0, 0, 0, 0, 2, 0, 2, 0, 0, 0, 0, 0, 0, 0, 0, 0, 0, 0, 0, 0, 0, 0, 0, 0, 2, 0, 4, 0, 0, 2, 0, 4, 0, 0, 0, 0, 0, 0, 0, 0, 0, 0, 0, 0, 0, 0, 0, 0, 0, 0, 0, 0, 0, 0, 0, 0, 0, 0, 0, 0, 0, 0, 0, 0, 0, 0, 0, 0, 0, 0, 0, 0, 0, 0, 0, 0, 0, 0, 0, 0, 0, 0, 0, 0, 0, 0, 0, 0, 0, 0, 0, 0, 0, 0, 0, 0, 0, 0, 0, 0, 0, 0, 0, 0, 0, 0, 0, 0, 0, 0, 0, 0, 0, 0, 2, 0, 4, 0, 0, 2, 0, 4, 0, 0, 0, 0, 0, 0, 0, 0, 0, 0, 0, 0, 0, 0, 0, 0, 0, 0, 0, 0, 0]);
subDemand=array2d(1..numSubsum,1..numDays, [2, 2, 0, 2, 2, 0, 2, 2, 0]);
numPers = 51;
personName = ["Dr1", "Dr2", "Dr3", "Dr4", "Dr5", "Dr6", "Dr7", "Dr9", "Dr10", "Dr11", "Dr12", "Dr13", "Dr14", "Dr15", "Dr16", "Dr17", "Dr18", "Dr19", "Dr20", "Dr21", "Dr22", "Dr23", "Dr24", "Dr25", "Dr26", "Dr27", "Dr28", "Dr29", "Dr30", "Dr31", "Dr32", "Dr33", "Dr34", "Dr35", "Dr36", "Dr37", "Dr38", "Dr39", "Dr40", "Dr41", "Dr42", "Dr43", "Dr44", "Dr45", "Dr46", "Dr47", "Dr48", "Dr49", "Dr50", "Dr51", "Dr52"];
stationPrefs = array3d(1..numPers,0..numStations,0..numSkills,[0, 4, 4, 4, 4, 0, 4, 4, 2, 4, 0, 4, 4, 2, 4, 0, 4, 4, 2, 4, 0, 4, 4, 1, 4, 0, 4, 4, 1, 4, 0, 4, 4, 1, 4, 0, 4, 4, 1, 4, 0, 4, 4, 1, 4, 0, 4, 4, 4, 4, 0, 4, 4, 4, 4, 0, 4, 4, 4, 4, 0, 4, 4, 4, 4, 0, 4, 4, 4, 4, 0, 4, 4, 0, 4, 0, 4, 4, 0, 4, 0, 4, 4, 0, 4, 0, 4, 4, 0, 4, 0, 4, 4, 4, 4, 0, 4, 4, 4, 4, 0, 4, 4, 4, 4, 0, 4, 4, 4, 4, 0, 4, 4, 4, 4, 0, 3, 3, 0, 3, 0, 3, 3, 0, 3, 0, 3, 3, 0, 3, 0, 3, 3, 0, 3, 0, 4, 4, 4, 4, 0, 4, 4, 3, 4, 0, 4, 4, 3, 4, 0, 4, 4, 3, 4, 0, 1, 4, 2, 1, 0, 0, 0, 3, 0, 0, 0, 0, 3, 0, 0, 0, 0, 3, 0, 0, 0, 0, 3, 0, 0, 4, 4, 4, 4, 0, 4, 4, 4, 4, 0, 4, 4, 4, 4, 0, 4, 4, 4, 4, 0, 4, 4, 2, 4, 0, 4, 4, 0, 4, 0, 4, 4, 0, 4, 0, 4, 4, 0, 4, 0, 4, 4, 0, 4, 0, 4, 4, 4, 4, 0, 4, 4, 4, 4, 0, 4, 4, 4, 4, 0, 4, 4, 4, 4, 0, 1, 4, 3, 1, 0, 0, 0, 3, 0, 0, 0, 0, 3, 0, 0, 0, 0, 3, 0, 0, 0, 0, 3, 0, 0, 4, 4, 4, 4, 0, 4, 4, 4, 4, 0, 4, 4, 4, 4, 0, 4, 4, 4, 4, 0, 2, 4, 2, 2, 0, 0, 0, 2, 0, 0, 0, 0, 2, 0, 0, 0, 0, 2, 0, 0, 0, 0, 2, 0, 0, 4, 4, 4, 4, 0, 4, 4, 4, 4, 0, 4, 4, 4, 4, 0, 4, 4, 4, 4, 0, 2, 4, 3, 2, 0, 0, 0, 3, 0, 0, 0, 0, 3, 0, 0, 0, 0, 3, 0, 0, 0, 0, 3, 0, 0, 4, 4, 4, 4, 0, 4, 4, 4, 4, 0, 4, 4, 4, 4, 0, 4, 4, 4, 4, 0, 4, 4, 0, 4, 0, 4, 4, 1, 4, 0, 4, 4, 1, 4, 0, 4, 4, 1, 4, 0, 4, 4, 1, 4, 0, 4, 4, 4, 4, 0, 4, 4, 4, 4, 0, 4, 4, 4, 4, 0, 4, 4, 4, 4, 0, 4, 4, 4, 4, 0, 0, 0, 3, 0, 0, 0, 0, 3, 0, 0, 0, 0, 3, 0, 0, 0, 0, 3, 0, 0, 4, 4, 4, 4, 0, 4, 4, 4, 4, 0, 4, 4, 4, 4, 0, 4, 4, 4, 4, 0, 4, 4, 4, 4, 0, 4, 4, 0, 4, 0, 4, 4, 0, 4, 0, 4, 4, 0, 4, 0, 4, 4, 0, 4, 0, 4, 4, 4, 4, 0, 4, 4, 4, 4, 0, 4, 4, 4, 4, 0, 4, 4, 4, 4, 0, 4, 4, 4, 4, 0, 4, 4, 0, 4, 0, 4, 4, 0, 4, 0, 4, 4, 0, 4, 0, 4, 4, 0, 4, 0, 4, 4, 4, 4, 0, 0, 1, 2, 0, 0, 0, 1, 2, 0, 0, 0, 1, 2, 0, 0, 3, 4, 3, 3, 0, 3, 3, 3, 3, 0, 3, 3, 3, 3, 0, 3, 3, 3, 3, 0, 3, 3, 3, 3, 0, 4, 4, 4, 4, 0, 0, 1, 1, 0, 0, 0, 1, 1, 0, 0, 0, 1, 1, 0, 0, 3, 4, 3, 3, 0, 3, 3, 3, 3, 0, 3, 3, 3, 3, 0, 3, 3, 3, 3, 0, 3, 3, 3, 3, 0, 4, 4, 4, 4, 0, 4, 3, 1, 3, 0, 4, 3, 1, 3, 0, 4, 3, 1, 3, 0, 4, 4, 1, 4, 0, 4, 4, 1, 4, 0, 4, 4, 1, 4, 0, 4, 4, 1, 4, 0, 4, 4, 1, 4, 0, 4, 4, 4, 4, 0, 0, 1, 1, 0, 0, 0, 1, 1, 0, 0, 0, 1, 1, 0, 0, 2, 4, 2, 2, 0, 1, 1, 3, 1, 0, 1, 1, 3, 1, 0, 1, 1, 3, 1, 0, 1, 1, 3, 1, 0, 4, 4, 4, 4, 0, 4, 4, 3, 4, 0, 4, 4, 3, 4, 0, 4, 4, 3, 4, 0, 0, 4, 2, 0, 0, 1, 1, 3, 1, 0, 1, 1, 3, 1, 0, 1, 1, 3, 1, 0, 1, 1, 3, 1, 0, 4, 4, 4, 4, 0, 4, 2, 0, 2, 0, 4, 2, 0, 2, 0, 4, 2, 0, 2, 0, 4, 4, 1, 4, 0, 4, 4, 2, 4, 0, 4, 4, 2, 4, 0, 4, 4, 2, 4, 0, 4, 4, 2, 4, 0, 4, 4, 4, 4, 0, 0, 1, 2, 0, 0, 0, 1, 2, 0, 0, 0, 1, 2, 0, 0, 1, 4, 2, 1, 0, 2, 2, 2, 2, 0, 2, 2, 2, 2, 0, 2, 2, 2, 2, 0, 2, 2, 2, 2, 0, 4, 4, 4, 4, 0, 4, 3, 0, 3, 0, 4, 3, 0, 3, 0, 4, 3, 0, 3, 0, 4, 4, 1, 4, 0, 4, 4, 2, 4, 0, 4, 4, 2, 4, 0, 4, 4, 2, 4, 0, 4, 4, 2, 4, 0, 4, 4, 4, 4, 0, 4, 3, 0, 3, 0, 4, 3, 0, 3, 0, 4, 3, 0, 3, 0, 4, 4, 1, 4, 0, 4, 4, 2, 4, 0, 4, 4, 2, 4, 0, 4, 4, 2, 4, 0, 4, 4, 2, 4, 0, 4, 4, 4, 4, 0, 4, 0, 0, 0, 0, 4, 0, 0, 0, 0, 4, 0, 0, 0, 0, 4, 4, 1, 4, 0, 4, 4, 2, 4, 0, 4, 4, 2, 4, 0, 4, 4, 2, 4, 0, 4, 4, 2, 4, 0, 4, 4, 4, 4, 0, 4, 0, 0, 0, 0, 4, 0, 0, 0, 0, 4, 0, 0, 0, 0, 4, 4, 1, 4, 0, 4, 4, 2, 4, 0, 4, 4, 2, 4, 0, 4, 4, 2, 4, 0, 4, 4, 2, 4, 0, 4, 4, 4, 4, 0, 4, 0, 0, 0, 0, 4, 0, 0, 0, 0, 4, 0, 0, 0, 0, 4, 4, 1, 4, 0, 4, 4, 2, 4, 0, 4, 4, 2, 4, 0, 4, 4, 2, 4, 0, 4, 4, 2, 4, 0, 4, 4, 4, 4, 0, 2, 1, 1, 1, 0, 2, 1, 1, 1, 0, 2, 1, 1, 1, 0, 0, 4, 1, 0, 0, 3, 3, 3, 3, 0, 3, 3, 3, 3, 0, 3, 3, 3, 3, 0, 3, 3, 3, 3, 0, 4, 4, 4, 4, 0, 4, 4, 2, 4, 0, 4, 4, 2, 4, 0, 4, 4, 2, 4, 0, 4, 4, 1, 4, 0, 4, 4, 1, 4, 0, 4, 4, 1, 4, 0, 4, 4, 1, 4, 0, 4, 4, 1, 4, 0, 4, 4, 4, 4, 0, 4, 4, 4, 4, 0, 4, 4, 4, 4, 0, 4, 4, 4, 4, 0, 4, 4, 4, 4, 0, 4, 4, 0, 4, 0, 4, 4, 0, 4, 0, 4, 4, 0, 4, 0, 4, 4, 0, 4, 0, 4, 4, 4, 4, 0, 4, 4, 4, 4, 0, 4, 4, 4, 4, 0, 4, 4, 4, 4, 0, 4, 4, 4, 4, 0, 3, 3, 0, 3, 0, 3, 3, 0, 3, 0, 3, 3, 0, 3, 0, 3, 3, 0, 3, 0, 4, 4, 4, 4, 0, 4, 4, 3, 4, 0, 4, 4, 3, 4, 0, 4, 4, 3, 4, 0, 1, 4, 2, 1, 0, 0, 0, 3, 0, 0, 0, 0, 3, 0, 0, 0, 0, 3, 0, 0, 0, 0, 3, 0, 0, 4, 4, 4, 4, 0, 4, 4, 4, 4, 0, 4, 4, 4, 4, 0, 4, 4, 4, 4, 0, 4, 4, 2, 4, 0, 4, 4, 0, 4, 0, 4, 4, 0, 4, 0, 4, 4, 0, 4, 0, 4, 4, 0, 4, 0, 4, 4, 4, 4, 0, 4, 4, 4, 4, 0, 4, 4, 4, 4, 0, 4, 4, 4, 4, 0, 1, 4, 3, 1, 0, 0, 0, 3, 0, 0, 0, 0, 3, 0, 0, 0, 0, 3, 0, 0, 0, 0, 3, 0, 0, 4, 4, 4, 4, 0, 4, 4, 4, 4, 0, 4, 4, 4, 4, 0, 4, 4, 4, 4, 0, 2, 4, 2, 2, 0, 0, 0, 2, 0, 0, 0, 0, 2, 0, 0, 0, 0, 2, 0, 0, 0, 0, 2, 0, 0, 4, 4, 4, 4, 0, 4, 4, 4, 4, 0, 4, 4, 4, 4, 0, 4, 4, 4, 4, 0, 4, 4, 0, 4, 0, 4, 4, 1, 4, 0, 4, 4, 1, 4, 0, 4, 4, 1, 4, 0, 4, 4, 1, 4, 0, 4, 4, 4, 4, 0, 4, 4, 4, 4, 0, 4, 4, 4, 4, 0, 4, 4, 4, 4, 0, 2, 4, 3, 2, 0, 0, 0, 3, 0, 0, 0, 0, 3, 0, 0, 0, 0, 3, 0, 0, 0, 0, 3, 0, 0, 4, 4, 4, 4, 0, 4, 4, 4, 4, 0, 4, 4, 4, 4, 0, 4, 4, 4, 4, 0, 4, 4, 0, 4, 0, 4, 4, 1, 4, 0, 4, 4, 1, 4, 0, 4, 4, 1, 4, 0, 4, 4, 1, 4, 0, 4, 4, 4, 4, 0, 4, 4, 4, 4, 0, 4, 4, 4, 4, 0, 4, 4, 4, 4, 0, 4, 4, 4, 4, 0, 0, 0, 3, 0, 0, 0, 0, 3, 0, 0, 0, 0, 3, 0, 0, 0, 0, 3, 0, 0, 4, 4, 4, 4, 0, 4, 4, 4, 4, 0, 4, 4, 4, 4, 0, 4, 4, 4, 4, 0, 4, 4, 4, 4, 0, 4, 4, 0, 4, 0, 4, 4, 0, 4, 0, 4, 4, 0, 4, 0, 4, 4, 0, 4, 0, 4, 4, 4, 4, 0, 4, 4, 4, 4, 0, 4, 4, 4, 4, 0, 4, 4, 4, 4, 0, 4, 4, 4, 4, 0, 4, 4, 0, 4, 0, 4, 4, 0, 4, 0, 4, 4, 0, 4, 0, 4, 4, 0, 4, 0, 4, 4, 4, 4, 0, 0, 1, 2, 0, 0, 0, 1, 2, 0, 0, 0, 1, 2, 0, 0, 3, 4, 3, 3, 0, 3, 3, 3, 3, 0, 3, 3, 3, 3, 0, 3, 3, 3, 3, 0, 3, 3, 3, 3, 0, 4, 4, 4, 4, 0, 0, 1, 1, 0, 0, 0, 1, 1, 0, 0, 0, 1, 1, 0, 0, 3, 4, 3, 3, 0, 3, 3, 3, 3, 0, 3, 3, 3, 3, 0, 3, 3, 3, 3, 0, 3, 3, 3, 3, 0, 4, 4, 4, 4, 0, 4, 3, 1, 3, 0, 4, 3, 1, 3, 0, 4, 3, 1, 3, 0, 4, 4, 1, 4, 0, 4, 4, 1, 4, 0, 4, 4, 1, 4, 0, 4, 4, 1, 4, 0, 4, 4, 1, 4, 0, 4, 4, 4, 4, 0, 0, 1, 1, 0, 0, 0, 1, 1, 0, 0, 0, 1, 1, 0, 0, 2, 4, 2, 2, 0, 1, 1, 3, 1, 0, 1, 1, 3, 1, 0, 1, 1, 3, 1, 0, 1, 1, 3, 1, 0, 4, 4, 4, 4, 0, 4, 4, 3, 4, 0, 4, 4, 3, 4, 0, 4, 4, 3, 4, 0, 0, 4, 2, 0, 0, 1, 1, 3, 1, 0, 1, 1, 3, 1, 0, 1, 1, 3, 1, 0, 1, 1, 3, 1, 0, 4, 4, 4, 4, 0, 4, 2, 0, 2, 0, 4, 2, 0, 2, 0, 4, 2, 0, 2, 0, 4, 4, 1, 4, 0, 4, 4, 2, 4, 0, 4, 4, 2, 4, 0, 4, 4, 2, 4, 0, 4, 4, 2, 4, 0, 4, 4, 4, 4, 0, 0, 1, 2, 0, 0, 0, 1, 2, 0, 0, 0, 1, 2, 0, 0, 1, 4, 2, 1, 0, 2, 2, 2, 2, 0, 2, 2, 2, 2, 0, 2, 2, 2, 2, 0, 2, 2, 2, 2, 0, 4, 4, 4, 4, 0, 4, 3, 0, 3, 0, 4, 3, 0, 3, 0, 4, 3, 0, 3, 0, 4, 4, 1, 4, 0, 4, 4, 2, 4, 0, 4, 4, 2, 4, 0, 4, 4, 2, 4, 0, 4, 4, 2, 4, 0, 4, 4, 4, 4, 0, 4, 3, 0, 3, 0, 4, 3, 0, 3, 0, 4, 3, 0, 3, 0, 4, 4, 1, 4, 0, 4, 4, 2, 4, 0, 4, 4, 2, 4, 0, 4, 4, 2, 4, 0, 4, 4, 2, 4, 0, 4, 4, 4, 4, 0, 4, 0, 0, 0, 0, 4, 0, 0, 0, 0, 4, 0, 0, 0, 0, 4, 4, 1, 4, 0, 4, 4, 2, 4, 0, 4, 4, 2, 4, 0, 4, 4, 2, 4, 0, 4, 4, 2, 4, 0, 4, 4, 4, 4, 0, 4, 0, 0, 0, 0, 4, 0, 0, 0, 0, 4, 0, 0, 0, 0, 4, 4, 1, 4, 0, 4, 4, 2, 4, 0, 4, 4, 2, 4, 0, 4, 4, 2, 4, 0, 4, 4, 2, 4, 0, 4, 4, 4, 4, 0, 4, 0, 0, 0, 0, 4, 0, 0, 0, 0, 4, 0, 0, 0, 0, 4, 4, 1, 4, 0, 4, 4, 2, 4, 0, 4, 4, 2, 4, 0, 4, 4, 2, 4, 0, 4, 4, 2, 4, 0, 4, 4, 4, 4, 0, 2, 1, 1, 1, 0, 2, 1, 1, 1, 0, 2, 1, 1, 1, 0, 0, 4, 1, 0, 0, 3, 3, 3, 3, 0, 3, 3, 3, 3, 0, 3, 3, 3, 3, 0, 3, 3, 3, 3]);
persRobustness = [10, 10, 10, 10, 10, 10, 10, 10, 10, 10, 10, 10, 10, 10, 10, 10, 10, 10, 10, 10, 10, 10, 10, 10, 10, 10, 10, 10, 10, 10, 10, 10, 10, 10, 10, 10, 10, 10, 10, 10, 10, 10, 10, 10, 10, 10, 10, 10, 10, 10, 10];
persRequireWork = [false, true, true, true, true, false, true, false, true, false, true, true, false, true, false, false, false, false, false, false, true, false, true, false, false, false, true, true, true, true, false, true, false, false, true, false, true, true, false, true, false, false, false, false, false, false, true, false, true, false, false];
persRisk = [false, false, false, false, false, false, false, false, false, false, true, true, false, false, false, false, true, false, false, false, false, false, false, false, false, false, false, false, false, false, false, false, false, false, false, false, true, true, false, false, false, false, true, false, false, false, false, false, false, false, false];
maxHoursWeek = [50, 50, 50, 50, 50, 50, 37, 50, 50, 50, 50, 50, 50, 50, 50, 50, 50, 50, 50, 50, 50, 50, 50, 50, 50, 50, 50, 50, 50, 50, 50, 37, 50, 50, 50, 50, 50, 50, 50, 50, 50, 50, 50, 50, 50, 50, 50, 50, 50, 50, 50];
forbiddenDays = [{}, {}, {}, {}, {}, {}, {}, {}, {}, {}, {}, {}, {}, {}, {}, {}, {}, {}, {}, {}, {}, {}, {}, {}, {}, {}, {}, {}, {}, {}, {}, {}, {}, {}, {}, {}, {}, {}, {}, {}, {}, {}, {}, {}, {}, {}, {}, {}, {}, {}, {}];
histConsecutiveWorkDays = [0, 0, 0, 0, 0, 0, 0, 0, 0, 0, 0, 0, 0, 0, 0, 0, 0, 0, 0, 0, 0, 0, 0, 0, 0, 0, 0, 0, 0, 0, 0, 0, 0, 0, 0, 0, 0, 0, 0, 0, 0, 0, 0, 0, 0, 0, 0, 0, 0, 0, 0];
histLastStationWorked = [8, 8, 8, 8, 6, 8, 8, 8, 6, 8, 8, 6, 2, 3, 4, 2, 4, 3, 3, 2, 2, 2, 3, 3, 4, 8, 8, 8, 8, 6, 8, 8, 8, 8, 6, 8, 8, 6, 2, 3, 4, 2, 4, 3, 3, 2, 2, 2, 3, 3, 4];
histShiftLastDay = [2, 0, 0, 0, 0, 0, 0, 0, 0, 0, 0, 0, 0, 0, 1, 0, 0, 0, 0, 0, 0, 0, 0, 0, 0, 2, 0, 0, 0, 0, 0, 0, 0, 0, 0, 0, 0, 0, 0, 0, 1, 0, 0, 0, 0, 0, 0, 0, 0, 0, 0];
